c Random 4-CNF over 20 variables and 100 clauses
c Generated with `cnfgen`
c (C) 2012-2016 Massimo Lauria <lauria.massimo@gmail.com>
c https://massimolauria.github.io/cnfgen
c
c COMMAND LINE: cnfgen --output tmp-4-20-100.dimacs --output-format dimacs randkcnf 4 20 100
c
c sdimacs generated by gen-sdimacs
c
p cnf 20 100
e 11 12 13 14 15 16 17 18 19 20 0
r 0.37 1 2 3 4 5 6 7 8 9 10 0
-1 -2 9 10 0
2 -10 -13 20 0
-6 7 10 17 0
11 -13 14 17 0
5 -7 11 -17 0
-4 15 -17 -20 0
4 5 11 -19 0
-6 -11 17 20 0
5 9 -11 16 0
-3 -18 19 -20 0
-1 11 12 -17 0
-2 3 -16 -19 0
2 5 15 16 0
-4 10 19 -20 0
-4 7 12 18 0
8 -12 -13 -19 0
2 -5 -12 20 0
3 -8 9 -18 0
-11 12 -18 19 0
5 -10 -14 -20 0
-10 -15 16 17 0
2 -3 -16 -20 0
-7 8 14 -19 0
2 -12 13 18 0
-5 13 -16 -17 0
11 -12 -19 20 0
4 -5 6 -16 0
-1 -6 8 -9 0
1 5 15 20 0
-2 3 13 -16 0
-3 -7 9 -13 0
10 -16 17 20 0
8 9 -16 -18 0
-10 -13 18 -19 0
5 6 18 -19 0
-2 -6 13 18 0
1 3 6 -13 0
6 -12 -16 20 0
-3 -9 -13 14 0
4 8 16 -18 0
3 -7 -8 -14 0
-5 10 14 -17 0
3 4 11 -20 0
12 14 18 -19 0
1 3 -15 -18 0
-1 -7 -10 17 0
3 -11 14 15 0
-2 -3 -10 18 0
-2 -7 13 -20 0
-5 7 -10 -18 0
6 -11 16 -19 0
2 10 11 15 0
4 6 -7 11 0
-13 -17 -19 20 0
5 6 -12 -16 0
3 -8 -14 15 0
-3 11 -12 20 0
2 -5 9 -10 0
-3 7 -19 -20 0
1 -5 -11 15 0
-2 6 -7 -18 0
-7 9 10 -11 0
-6 11 -14 17 0
1 6 7 -16 0
-8 -11 -12 14 0
9 -12 -14 20 0
-5 -16 -17 -20 0
5 -10 14 18 0
-7 8 -13 -18 0
3 -12 15 -20 0
7 -11 13 -15 0
-2 4 12 14 0
-2 -3 -12 -15 0
-5 -6 -16 -20 0
5 9 11 16 0
2 6 8 -10 0
-2 -5 -13 16 0
-10 -11 18 20 0
-1 8 -17 18 0
-3 -5 8 18 0
6 -9 14 -16 0
-13 14 -16 -18 0
-2 -10 -17 -19 0
-5 -7 -8 12 0
8 10 12 -15 0
-1 -6 -7 19 0
6 8 13 16 0
-1 3 -7 9 0
-6 7 13 20 0
2 -6 10 -18 0
1 -9 -12 15 0
3 -5 -9 13 0
-1 6 -18 -20 0
4 8 18 -19 0
-6 11 -14 20 0
5 9 -12 17 0
-2 -6 -10 -19 0
2 -7 -16 18 0
1 5 6 11 0
-4 -7 -11 -20 0
